************************************************************************
file with basedata            : cr426_.bas
initial value random generator: 856929758
************************************************************************
projects                      :  1
jobs (incl. supersource/sink ):  18
horizon                       :  123
RESOURCES
  - renewable                 :  4   R
  - nonrenewable              :  2   N
  - doubly constrained        :  0   D
************************************************************************
PROJECT INFORMATION:
pronr.  #jobs rel.date duedate tardcost  MPM-Time
    1     16      0       15       14       15
************************************************************************
PRECEDENCE RELATIONS:
jobnr.    #modes  #successors   successors
   1        1          3           2   3   4
   2        3          3           5   9  10
   3        3          2           6   9
   4        3          3           8  10  11
   5        3          2          14  15
   6        3          3           7  11  12
   7        3          3          14  15  16
   8        3          1          17
   9        3          2          12  17
  10        3          3          12  13  16
  11        3          2          13  16
  12        3          1          15
  13        3          1          14
  14        3          1          17
  15        3          1          18
  16        3          1          18
  17        3          1          18
  18        1          0        
************************************************************************
REQUESTS/DURATIONS:
jobnr. mode duration  R 1  R 2  R 3  R 4  N 1  N 2
------------------------------------------------------------------------
  1      1     0       0    0    0    0    0    0
  2      1     2       0    0    3    3    8    0
         2     6       9    7    0    3    0    6
         3     7       0    0    0    2    3    0
  3      1     1       0    0    3    4   10    0
         2     4       7    0    0    4    3    0
         3    10       0    3    0    3    0    7
  4      1     3       6    0    5    2    0    5
         2     5       6    3    0    2    0    4
         3     9       0    0    0    2    0    4
  5      1     1       2    5    0    0    0    7
         2     3       1    0    0    0    0    6
         3     5       0    0    2    0    0    3
  6      1     3       9    7    6    0    8    0
         2     8       6    5    4    0    4    0
         3     9       0    5    4    3    0    4
  7      1     2       0    0    0    4    0    4
         2     2       7    0    0    4    7    0
         3     5       0    8    0    0    7    0
  8      1     3       5    9    0    0    2    0
         2     4       5    0    3    5    0    7
         3     7       0    6    0    0    1    0
  9      1     7       4    0    0    9    7    0
         2     9       0    0    0    3    0    6
         3    10       3    4    0    0    0    5
 10      1     5       0    0    3    0    3    0
         2     7       6    0    3    0    0    6
         3    10       0    9    3    0    2    0
 11      1     1       0    0   10    7    6    0
         2     4       0    2    6    5    0    6
         3     6       7    0    0    4    0    4
 12      1     3       0    0    2    0    4    0
         2     6       0    7    2   10    3    0
         3     9       0    0    0    7    3    0
 13      1     2       6    0    7    0    5    0
         2     8       5    9    0    0    5    0
         3    10       3    7    7   10    5    0
 14      1     3       7    0    0    0    9    0
         2     5       0    0    0    4    0    7
         3    10       6    0    1    0    0    7
 15      1     1       9    0    0    6    8    0
         2     5       8    0    0    5    7    0
         3     6       0    3    0    5    0    2
 16      1     1       4   10    0    0    0    9
         2     2       0    9    1   10    6    0
         3     3       4    0    1    8    0    8
 17      1     2       7    0    0    0    0    7
         2     4       0    2    3    5    0    7
         3     7       5    0    3    0    3    0
 18      1     0       0    0    0    0    0    0
************************************************************************
RESOURCEAVAILABILITIES:
  R 1  R 2  R 3  R 4  N 1  N 2
   14   16   11   18   86   83
************************************************************************
